benchmarks_vrp/CMT4/min_c/CMT4_6.vrp
NAME: CMT4_6
TYPE: CVRP
COMMENT: 1028.42 - Cluster Nr.6
DIMENSION: 19
CAPACITY: 200
EDGE_WEIGHT_TYPE: EUC_2D
NODE_COORD_TYPE: TWOD_COORDS
NODE_COORD_SECTION: 
17 31 32
5 32 22
16 22 22
3 25 30
15 25 32
2 22 27
7 30 15
12 28 18
6 26 27
14 36 26
9 35 35
19 32 12
11 25 24
4 27 23
13 30 25
8 25 21
1 35 17
10 36 16
18 26 35
DEPOT_SECTION: 
9
-1
DEMAND_SECTION: 
4 3
10 10
2 11
3 3
18 15
19 7
16 2
12 26
14 18
15 25
17 29
5 9
13 23
6 27
11 20
8 12
7 16
1 7
9 0
EOF
