benchmarks_vrp/CMT4/min_c/CMT4_6.tour
NAME: CMT4_6 solution
TYPE: TOUR
TOUR_SECTION:
9 14 5 1 10 19 7 12 8 16 2 6 11 4 13 -1
9 18 15 3 17 -1
-1
EOF